# Solution for model FIXNET6
# Objective value = 3983
F.001002 494
I.001002 1
F.001004 0
I.001004 0
F.001023 6
F.001056 0
I.001056 0
F.002066 0
I.002066 0
F.002020 19
F.002087 0
I.002087 0
F.002030 3
F.002047 0
I.002047 0
F.002063 8
I.002063 1
F.002044 0
I.002044 0
F.002080 0
I.002080 0
F.002096 8
F.002008 117
I.002008 1
F.002010 0
I.002010 0
F.002042 0
I.002042 0
F.002017 0
I.002017 0
F.002057 4
I.002057 1
F.002052 0
I.002052 0
F.002028 0
I.002028 0
F.002035 6
I.002035 1
F.002086 0
F.002013 0
I.002013 0
F.002062 0
I.002062 0
F.002084 0
I.002084 0
F.002007 255
F.002100 0
I.002100 0
F.002068 3
F.002095 5
F.002072 6
I.002072 1
F.002078 0
I.002078 0
F.002075 6
F.002094 6
F.002088 7
F.002019 0
I.002019 0
F.002058 5
F.002041 6
F.002073 8
F.002082 1
F.002061 7
I.002061 1
F.002048 11
F.002024 0
I.002024 0
F.002027 3
F.003039 0
I.003039 0
F.003048 0
I.003048 0
F.003028 0
I.003028 0
F.003004 0
I.003004 0
F.003010 0
I.003010 0
F.003063 0
I.003063 0
F.004060 9
F.004051 0
I.004051 0
F.004047 0
I.004047 0
F.004015 0
I.004015 0
F.004085 0
I.004085 0
F.004068 0
I.004068 0
F.004096 0
I.004096 0
F.004086 0
F.004035 0
I.004035 0
F.004044 0
I.004044 0
F.004074 0
F.004011 0
I.004011 0
F.004081 0
F.004029 0
I.004029 0
F.004023 0
F.004040 0
I.004040 0
F.004057 0
I.004057 0
F.004098 0
I.004098 0
F.004036 0
F.004056 0
I.004056 0
F.004005 0
I.004005 0
F.004088 0
I.004088 0
F.004053 3
F.004083 0
I.004083 0
F.004090 0
F.004094 0
I.004094 0
F.004073 0
I.004073 0
F.004058 0
I.004058 0
F.004091 0
I.004091 0
F.004032 0
F.004042 0
I.004042 0
F.004071 0
I.004071 0
F.004020 0
F.004078 0
I.004078 0
F.004079 4
F.004095 0
I.004095 0
F.004026 0
I.004026 0
F.004050 0
F.004099 2
F.004030 0
I.004030 0
F.004097 0
I.004097 0
F.004054 0
I.004054 0
F.004045 0
I.004045 0
F.005057 0
I.005057 0
F.005034 0
I.005034 0
F.005090 0
I.005090 0
F.005044 0
I.005044 0
F.005027 0
I.005027 0
F.005078 0
F.005014 0
I.005014 0
F.005064 0
I.005064 0
F.005040 0
I.005040 0
F.005007 0
I.005007 0
F.005062 0
I.005062 0
F.005006 0
F.005030 0
I.005030 0
F.005024 2
I.005024 1
F.005045 0
I.005045 0
F.005037 0
I.005037 0
F.005082 0
F.005063 0
I.005063 0
F.005039 0
I.005039 0
F.005028 0
F.006069 0
I.006069 0
F.006026 6
F.006022 5
F.006062 13
F.006017 0
I.006017 0
F.006016 0
I.006016 0
F.006089 3
I.006089 1
F.006050 9
F.006036 0
I.006036 0
F.006064 4
F.006092 14
F.006060 0
I.006060 0
F.006045 0
I.006045 0
F.006004 0
I.006004 0
F.006100 0
I.006100 0
F.006078 0
I.006078 0
F.006043 0
I.006043 0
F.006039 28
F.006047 5
I.006047 1
F.006081 0
I.006081 0
F.006090 0
I.006090 0
F.006030 0
I.006030 0
F.006040 0
I.006040 0
F.006065 0
I.006065 0
F.006057 0
I.006057 0
F.006023 0
F.006083 5
F.006007 0
F.006049 0
I.006049 0
F.006028 0
I.006028 0
F.006094 0
I.006094 0
F.006018 46
I.006018 1
F.006082 0
F.006073 0
I.006073 0
F.006005 2
F.006021 10
F.006035 0
I.006035 0
F.006095 0
I.006095 0
F.006052 0
I.006052 0
F.007010 0
I.007010 0
F.007082 0
I.007082 0
F.007025 0
I.007025 0
F.007097 0
I.007097 0
F.007038 2
F.007034 0
I.007034 0
F.007070 0
I.007070 0
F.007013 95
F.007008 0
I.007008 0
F.007081 8
F.007006 150
F.007031 0
I.007031 0
F.007058 0
I.007058 0
F.007053 0
I.007053 0
F.008035 0
I.008035 0
F.008061 0
I.008061 0
F.008055 5
F.008079 0
I.008079 0
F.008019 77
I.008019 1
F.008089 0
I.008089 0
F.008075 0
I.008075 0
F.008021 0
I.008021 0
F.008077 0
I.008077 0
F.008012 0
I.008012 0
F.008007 0
I.008007 0
F.008068 0
I.008068 0
F.008080 0
I.008080 0
F.008065 0
I.008065 0
F.008049 3
F.008069 5
F.008081 0
F.008071 10
F.008097 0
I.008097 0
F.008045 7
F.008042 0
I.008042 0
F.008041 0
I.008041 0
F.008036 0
I.008036 0
F.008088 0
I.008088 0
F.008025 0
I.008025 0
F.008032 4
F.008082 0
I.008082 0
F.008074 6
F.008013 0
I.008013 0
F.008072 0
I.008072 0
F.008030 0
I.008030 0
F.009045 0
F.009004 0
I.009004 0
F.009049 0
I.009049 0
F.009095 0
I.009095 0
F.009015 0
I.009015 0
F.009056 0
I.009056 0
F.009012 0
I.009012 0
F.009036 0
I.009036 0
F.009041 0
I.009041 0
F.009013 0
F.009076 0
I.009076 0
F.009047 0
I.009047 0
F.009011 0
I.009011 0
F.009088 0
F.009078 0
I.009078 0
F.009096 0
I.009096 0
F.009066 0
I.009066 0
F.009044 0
I.009044 0
F.009098 0
I.009098 0
F.009087 0
F.009093 0
F.009035 0
I.009035 0
F.009062 0
I.009062 0
F.010043 6
I.010043 1
F.010076 0
I.010076 0
F.010091 0
I.010091 0
F.010050 0
I.010050 0
F.010011 0
I.010011 0
F.010083 0
F.010018 0
I.010018 0
F.010015 0
I.010015 0
F.010008 0
I.010008 0
F.010031 1
F.010035 0
I.010035 0
F.010086 0
F.010022 0
I.010022 0
F.010032 0
I.010032 0
F.010029 0
I.010029 0
F.010065 0
I.010065 0
F.010098 0
F.010027 0
I.010027 0
F.010081 0
I.010081 0
F.010075 0
I.010075 0
F.010089 0
I.010089 0
F.010034 11
I.010034 1
F.010062 0
I.010062 0
F.010070 4
F.010046 0
I.010046 0
F.010041 0
I.010041 0
F.010068 0
F.010033 10
I.010033 1
F.010094 0
I.010094 0
F.010051 0
F.010040 0
I.010040 0
F.010014 0
I.010014 0
F.011080 0
I.011080 0
F.011099 0
F.011012 0
I.011012 0
F.011032 0
I.011032 0
F.011041 0
I.011041 0
F.011030 0
I.011030 0
F.011009 0
I.011009 0
F.011087 0
I.011087 0
F.011031 0
I.011031 0
F.011075 0
I.011075 0
F.011054 0
I.011054 0
F.011025 0
I.011025 0
F.011021 0
F.011089 0
I.011089 0
F.011095 0
I.011095 0
F.011039 0
F.011028 0
I.011028 0
F.011044 0
F.011064 0
I.011064 0
F.011018 0
I.011018 0
F.011081 0
F.011038 0
I.011038 0
F.011035 0
I.011035 0
F.012088 0
I.012088 0
F.012031 0
I.012031 0
F.012053 0
I.012053 0
F.012003 0
I.012003 0
F.012029 0
I.012029 0
F.012059 0
I.012059 0
F.012038 0
F.012100 0
I.012100 0
F.013008 0
I.013008 0
F.013094 0
F.013093 9
F.013063 0
I.013063 0
F.013036 5
F.013079 0
I.013079 0
F.013020 0
F.013015 0
I.013015 0
F.013081 0
I.013081 0
F.013065 0
I.013065 0
F.013070 0
I.013070 0
F.013097 0
I.013097 0
F.013069 0
I.013069 0
F.013055 0
I.013055 0
F.013048 0
I.013048 0
F.013090 0
F.013057 0
I.013057 0
F.013061 0
I.013061 0
F.013096 0
I.013096 0
F.013049 0
I.013049 0
F.013040 0
I.013040 0
F.013016 0
I.013016 0
F.013052 5
F.013088 0
I.013088 0
F.013092 0
F.013062 0
I.013062 0
F.013010 32
I.013010 1
F.013056 0
I.013056 0
F.013044 1
I.013044 1
F.013004 18
F.013067 0
I.013067 0
F.013083 0
I.013083 0
F.013012 0
I.013012 0
F.013091 0
I.013091 0
F.013074 0
I.013074 0
F.013073 0
F.013031 0
I.013031 0
F.013003 0
I.013003 0
F.013064 0
F.013037 0
I.013037 0
F.013033 0
I.013033 0
F.013066 0
I.013066 0
F.013023 0
I.013023 0
F.013042 5
F.013051 4
F.013084 5
F.013006 0
F.013022 0
I.013022 0
F.013041 0
I.013041 0
F.013085 0
I.013085 0
F.013076 6
I.013076 1
F.013098 5
F.014018 0
I.014018 0
F.014070 0
I.014070 0
F.014031 0
I.014031 0
F.014017 0
I.014017 0
F.014093 0
I.014093 0
F.014020 0
I.014020 0
F.014023 0
I.014023 0
F.014082 0
I.014082 0
F.014054 0
I.014054 0
F.014065 0
I.014065 0
F.014059 0
I.014059 0
F.014066 0
I.014066 0
F.014050 0
I.014050 0
F.014087 0
I.014087 0
F.014011 0
F.014030 0
F.014046 0
I.014046 0
F.014064 0
I.014064 0
F.014098 0
I.014098 0
F.014067 0
I.014067 0
F.014079 0
I.014079 0
F.015005 0
I.015005 0
F.015074 0
F.015084 0
F.015073 0
I.015073 0
F.015011 0
I.015011 0
F.015067 0
I.015067 0
F.015039 0
I.015039 0
F.015024 0
I.015024 0
F.015036 0
I.015036 0
F.015087 0
I.015087 0
F.015065 0
I.015065 0
F.015058 0
I.015058 0
F.015012 0
I.015012 0
F.015068 0
I.015068 0
F.015071 0
I.015071 0
F.015044 0
I.015044 0
F.015081 0
I.015081 0
F.016013 0
I.016013 0
F.016092 0
I.016092 0
F.016042 0
I.016042 0
F.016072 0
I.016072 0
F.016056 0
I.016056 0
F.016066 11
F.016070 0
I.016070 0
F.016018 0
I.016018 0
F.016067 0
I.016067 0
F.016071 0
I.016071 0
F.016080 0
I.016080 0
F.016041 0
I.016041 0
F.016010 0
I.016010 0
F.016059 0
I.016059 0
F.016050 0
I.016050 0
F.016091 7
F.017007 0
I.017007 0
F.017024 0
I.017024 0
F.017098 0
F.017081 0
I.017081 0
F.017100 0
I.017100 0
F.018046 4
I.018046 1
F.018016 18
I.018016 1
F.018065 5
F.018056 1
I.018056 1
F.018085 0
I.018085 0
F.018036 0
I.018036 0
F.018004 0
I.018004 0
F.018042 0
I.018042 0
F.018015 0
I.018015 0
F.018064 0
I.018064 0
F.018047 0
I.018047 0
F.018028 0
F.018081 0
I.018081 0
F.018077 2
I.018077 1
F.018030 0
I.018030 0
F.018003 0
I.018003 0
F.018095 0
I.018095 0
F.018078 1
F.018090 0
I.018090 0
F.018066 0
I.018066 0
F.018058 0
I.018058 0
F.018024 0
I.018024 0
F.018069 0
F.018063 0
I.018063 0
F.018007 0
I.018007 0
F.018049 0
I.018049 0
F.018062 0
F.018086 0
F.018041 0
I.018041 0
F.018099 0
I.018099 0
F.018009 0
F.018002 0
I.018002 0
F.018070 0
I.018070 0
F.018043 0
I.018043 0
F.018012 0
I.018012 0
F.018034 0
I.018034 0
F.018025 11
I.018025 1
F.018011 0
I.018011 0
F.018032 0
I.018032 0
F.018068 0
I.018068 0
F.018059 0
I.018059 0
F.018008 0
I.018008 0
F.018020 0
F.018019 0
I.018019 0
F.018040 4
F.018038 0
I.018038 0
F.019058 0
I.019058 0
F.019067 12
I.019067 1
F.019037 5
F.019052 0
I.019052 0
F.019054 9
I.019054 1
F.019006 0
I.019006 0
F.019080 2
F.019029 15
I.019029 1
F.019064 0
I.019064 0
F.019073 0
I.019073 0
F.019097 1
F.019084 0
I.019084 0
F.019007 0
F.019009 0
F.019094 0
I.019094 0
F.019008 0
I.019008 0
F.019053 0
I.019053 0
F.019098 0
I.019098 0
F.019051 0
I.019051 0
F.019096 0
I.019096 0
F.019087 3
F.019040 0
I.019040 0
F.019068 0
F.019005 0
I.019005 0
F.019086 0
I.019086 0
F.019049 0
I.019049 0
F.019062 0
I.019062 0
F.019041 0
I.019041 0
F.019090 4
F.019010 0
I.019010 0
F.019022 0
I.019022 0
F.019085 10
F.019021 0
I.019021 0
F.019060 0
I.019060 0
F.019031 0
I.019031 0
F.019069 0
I.019069 0
F.019056 0
I.019056 0
F.019046 0
I.019046 0
F.019016 0
I.019016 0
F.019055 0
F.019045 0
I.019045 0
F.019099 0
I.019099 0
F.019088 0
I.019088 0
F.019059 16
I.019059 1
F.019093 0
F.019018 0
I.019018 0
F.019061 0
I.019061 0
F.019048 0
I.019048 0
F.019076 0
I.019076 0
F.020033 0
I.020033 0
F.020023 0
I.020023 0
F.020009 0
I.020009 0
F.020100 6
F.020086 7
F.020071 0
I.020071 0
F.020055 0
I.020055 0
F.020032 0
I.020032 0
F.020092 0
I.020092 0
F.020026 0
I.020026 0
F.020037 0
I.020037 0
F.020028 6
